#######################################
### Exact MIP solver for the HHCRSP ###
#######################################
-- Instance file: new-instances/HHCRSP_50_10_61_1.6_R_RC.txt
-- Max threads: 4
-- Time limit: 999999 seconds
-- Use initial solution: No
Trivial flow violations prevented generating 5971 variables.
Model exported.
Version identifier: 20.1.0.0 | 2020-11-10 | 9bedb6d68
CPXPARAM_Threads                                 4
CPXPARAM_TimeLimit                               999999
Parallel mode: deterministic, using up to 4 threads for concurrent optimization:
 * Starting dual Simplex on 1 thread...
 * Starting Barrier on 3 threads...
Tried aggregator 1 time.
LP Presolve eliminated 1494 rows and 444 columns.
Reduced LP has 8044 rows, 7782 columns, and 69333 nonzeros.
Presolve time = 0.04 sec. (19.98 ticks)
Symmetry aggregator did 6534 additional substitutions.
Initializing dual steep norms . . .

Iteration log . . .
Iteration:     1   Dual objective     =             0.333333

Dual crossover.
  Dual:  Fixing 92 variables.
       91 DMoves:  Infeasibility  1.69864123e-14  Objective  1.10000000e+02
        0 DMoves:  Infeasibility  1.47659662e-14  Objective  1.10000000e+02
  Dual:  Pushed 6, exchanged 86.
  Primal:  Fixing 39 variables.
       38 PMoves:  Infeasibility  3.33066907e-16  Objective  1.10000000e+02
        0 PMoves:  Infeasibility  4.44089210e-16  Objective  1.10000000e+02
  Primal:  Pushed 17, exchanged 22.

Dual simplex solved model.


Solution status from MIP model:
-- Processing time: 0.073 sec.
-- Memory used: 73.8701 MB
-- Best bound: inf
-- Obj value: 110
-- Gap: inf%
-- Total distance: 330
-- Total tardiness: 0
-- Largest tardiness: 0
